CMD:
./solvers/bin/cadical --plain --no-reduce -t 1600 ./data/cnfs//arbitrated_top_n4_w16_d32_e0/arbitrated_top_n4_w16_d32_e0.49.cnf

c --- [ banner ] -------------------------------------------------------------
c 
c CaDiCaL SAT Solver
c Copyright (c) 2016-2024
c A. Biere, M. Fleury, N. Froleyks, K. Fazekas, F. Pollitt, T. Faller
c JKU Linz, University of Freiburg, TU Wien
c 
c Version 2.1.3 5296d3d2a9bf48c154ab2acb5e44625776d821bf
c g++ (Gentoo 12.3.1_p20230526 p2) 12.3.1 20230526 -Wall -Wextra -O3 -DNDEBUG
c Sat Aug 9 07:26:21 PDT 2025 Linux cedar2.int.cedar.computecanada.ca 5.14.0-362.24.2.el9_3.x86_64 x86_64
c 
c --- [ limit ] --------------------------------------------------------------
c 
c setting time limit to 1600 seconds real time (due to '-t 1600')
c 
c --- [ parsing input ] ------------------------------------------------------
c 
c reading DIMACS file from './data/cnfs//arbitrated_top_n4_w16_d32_e0/arbitrated_top_n4_w16_d32_e0.49.cnf'
c opening file to read './data/cnfs//arbitrated_top_n4_w16_d32_e0/arbitrated_top_n4_w16_d32_e0.49.cnf'
c found 'p cnf 624381 1855101' header
c parsed 1855101 clauses in 0.27 seconds process time
c 
c --- [ options ] ------------------------------------------------------------
c 
c   --compact=false                (different from default 'true')
c   --decompose=false              (different from default 'true')
c   --deduplicate=false            (different from default 'true')
c   --elim=false                   (different from default 'true')
c   --probe=false                  (different from default 'true')
c   --reduce=false                 (different from default 'true')
c   --subsume=false                (different from default 'true')
c   --ternary=false                (different from default 'true')
c   --transred=false               (different from default 'true')
c   --vivify=false                 (different from default 'true')
c 
c --- [ solving ] ------------------------------------------------------------
c 
c time measured in process time since initialization
c 
c  seconds   reductions  redundant   irredundant
c          MB    restarts       trail        variables
c           level   conflicts       glue           remaining
c 
c *  0.27 252  0 0   0    0    0  0% 0 1435177 328162 53%
c l  0.30 256  0 0   0    0    0  0% 0 1435177 328162 53%
c 1  0.30 256  0 0   0    0    0  0% 0 1435177 328162 53%
c 
c --- [ result ] -------------------------------------------------------------
c 
s SATISFIABLE
v 1 2 3 4 5 6 7 8 9 10 11 12 13 14 15 16 17 18 19 20 21 22 23 24 25 26 27 28
v 29 30 31 32 33 34 35 36 37 38 39 40 41 42 43 44 45 46 47 48 49 50 51 52 53
v 54 55 56 57 58 59 60 61 62 63 64 65 66 67 68 69 70 71 72 73 74 75 76 77 78
v 79 80 81 82 83 84 85 86 87 88 89 90 91 92 93 94 95 96 97 98 99 100 101 102
v 103 104 105 106 107 108 109 110 111 112 113 114 115 116 117 118 119 120 121
v 122 123 124 125 126 127 128 129 130 131 132 133 134 135 136 137 138 139 140
v 141 142 143 144 145 146 147 148 149 150 151 152 153 154 155 156 157 158 159
v 160 161 162 163 164 165 166 167 168 169 170 171 172 173 174 175 176 177 178
v 179 180 181 182 183 184 185 186 187 188 189 190 191 192 193 194 195 196 197
v 198 199 200 201 202 203 204 205 206 207 208 209 210 211 212 213 214 215 216
v 217 218 219 220 221 222 223 224 225 226 227 228 229 230 231 232 233 234 235
v 236 237 238 239 240 241 242 243 244 245 246 247 248 249 250 251 252 253 254
v 255 256 257 258 259 260 261 262 263 264 265 266 267 268 269 270 271 272 273
v 274 275 276 277 278 279 280 281 282 283 284 285 286 287 288 289 290 291 292
v 293 294 295 296 297 298 299 300 301 302 303 304 305 306 307 308 309 310 311
v 312 313 314 315 316 317 318 319 320 321 322 323 324 325 326 327 328 329 330
v 331 332 333 334 335 336 337 338 339 340 341 342 343 344 345 346 347 348 349
v 350 351 352 353 354 355 356 357 358 359 360 361 362 363 364 365 366 367 368
v 369 370 371 372 373 374 375 376 377 378 379 380 381 382 383 384 385 386 387
v 388 389 390 391 392 393 394 395 396 397 398 399 400 401 402 403 404 405 406
v 407 408 409 410 411 412 413 414 415 416 417 418 419 420 421 422 423 424 425
v 426 427 428 429 430 431 432 433 434 435 436 437 438 439 440 441 442 443 444
v 445 446 447 448 449 450 451 452 453 454 455 456 457 458 459 460 461 462 463
v 464 465 466 467 468 469 470 471 472 473 474 475 476 477 478 479 480 481 482
v 483 484 485 486 487 488 489 490 491 492 493 494 495 496 497 498 499 500 501
v 502 503 504 505 506 507 508 509 510 511 512 513 514 515 516 517 518 519 520
v 521 522 523 524 525 526 527 528 529 530 531 532 533 534 535 536 537 538 539
v 540 541 542 543 544 545 546 547 548 549 550 551 552 553 554 555 556 557 558
v 559 560 561 562 563 564 565 566 567 568 569 570 571 572 573 574 575 576 577
v 578 579 580 581 582 583 584 585 586 587 588 589 590 591 592 593 594 595 596
v 597 598 599 600 601 602 603 604 605 606 607 608 609 610 611 612 613 614 615
v 616 617 618 619 620 621 622 623 624 625 626 627 628 629 630 631 632 633 634
v 635 636 637 638 639 640 641 642 643 644 645 646 647 648 649 650 651 652 653
v 654 655 656 657 658 659 660 661 662 663 664 665 666 667 668 669 670 671 672
v 673 674 675 676 677 678 679 680 681 682 683 684 685 686 687 688 689 690 691
v 692 693 694 695 696 697 698 699 700 701 702 703 704 705 706 707 708 709 710
v 711 712 713 714 715 716 717 718 719 720 721 722 723 724 725 726 727 728 729
v 730 731 732 733 734 735 736 737 738 739 740 741 742 743 744 745 746 747 748
v 749 750 751 752 753 754 755 756 757 758 759 760 761 762 763 764 765 766 767
v 768 769 770 771 772 773 774 775 776 777 778 779 780 781 782 783 784 785 786
v 787 788 789 790 791 792 793 794 795 796 797 798 799 800 801 802 803 804 805
v 806 807 808 809 810 811 812 813 814 815 816 817 818 819 820 821 822 823 824
v 825 826 827 828 829 830 831 832 833 834 835 836 837 838 839 840 841 842 843
v 844 845 846 847 848 849 850 851 852 853 854 855 856 857 858 859 860 861 862
v 863 864 865 866 867 868 869 870 871 872 873 874 875 876 877 878 879 880 881
v 882 883 884 885 886 887 888 889 890 891 892 893 894 895 896 897 898 899 900
v 901 902 903 904 905 906 907 908 909 910 911 912 913 914 915 916 917 918 919
... skipped 63769 lines ...
v -623807 -623808 -623809 -623810 623811 -623812 623813 -623814 -623815
v -623816 -623817 -623818 -623819 -623820 -623821 -623822 -623823 -623824
v -623825 -623826 -623827 -623828 -623829 -623830 -623831 -623832 -623833
v -623834 -623835 -623836 -623837 -623838 -623839 -623840 -623841 -623842
v -623843 -623844 -623845 623846 -623847 623848 -623849 -623850 -623851
v -623852 -623853 -623854 -623855 -623856 -623857 -623858 -623859 -623860
v -623861 -623862 -623863 -623864 -623865 -623866 -623867 -623868 -623869
v -623870 -623871 -623872 -623873 -623874 -623875 -623876 -623877 -623878
v -623879 -623880 -623881 623882 -623883 623884 -623885 -623886 -623887
v -623888 -623889 -623890 -623891 -623892 -623893 -623894 -623895 -623896
v -623897 -623898 -623899 -623900 -623901 -623902 -623903 -623904 -623905
v -623906 -623907 -623908 -623909 -623910 -623911 -623912 -623913 -623914
v -623915 -623916 -623917 623918 -623919 623920 -623921 623922 -623923 623924
v -623925 -623926 623927 623928 -623929 -623930 623931 -623932 -623933 -623934
v -623935 -623936 -623937 -623938 -623939 -623940 623941 623942 -623943 623944
v -623945 -623946 -623947 623948 623949 -623950 623951 -623952 -623953 -623954
v 623955 623956 -623957 623958 -623959 -623960 -623961 -623962 623963 -623964
v 623965 623966 -623967 -623968 -623969 623970 -623971 -623972 623973 -623974
v -623975 623976 -623977 -623978 623979 -623980 623981 -623982 -623983 -623984
v -623985 -623986 -623987 -623988 -623989 -623990 -623991 -623992 -623993
v -623994 -623995 -623996 -623997 -623998 -623999 -624000 -624001 -624002
v -624003 -624004 -624005 -624006 -624007 -624008 -624009 -624010 -624011
v -624012 -624013 -624014 624015 -624016 624017 -624018 -624019 -624020
v -624021 -624022 -624023 -624024 -624025 -624026 -624027 -624028 -624029
v -624030 -624031 -624032 -624033 -624034 -624035 -624036 -624037 -624038
v -624039 -624040 -624041 -624042 -624043 -624044 -624045 -624046 -624047
v -624048 -624049 -624050 624051 -624052 624053 -624054 -624055 -624056
v -624057 -624058 -624059 -624060 -624061 -624062 -624063 -624064 -624065
v -624066 -624067 -624068 -624069 -624070 -624071 -624072 -624073 -624074
v -624075 -624076 -624077 -624078 -624079 -624080 -624081 -624082 -624083
v -624084 -624085 -624086 -624087 624088 -624089 -624090 -624091 -624092
v -624093 -624094 -624095 -624096 -624097 -624098 -624099 -624100 -624101
v -624102 -624103 -624104 -624105 -624106 -624107 -624108 -624109 -624110
v -624111 -624112 -624113 -624114 -624115 -624116 -624117 -624118 -624119
v -624120 -624121 -624122 624123 -624124 624125 -624126 -624127 -624128
v -624129 -624130 -624131 -624132 -624133 -624134 -624135 -624136 -624137
v -624138 -624139 -624140 -624141 -624142 -624143 -624144 -624145 -624146
v -624147 -624148 -624149 -624150 -624151 -624152 -624153 -624154 -624155
v -624156 -624157 -624158 624159 -624160 624161 -624162 -624163 -624164
v -624165 -624166 -624167 -624168 -624169 -624170 -624171 -624172 -624173
v -624174 -624175 -624176 -624177 -624178 -624179 -624180 -624181 -624182
v -624183 -624184 -624185 -624186 -624187 -624188 -624189 -624190 -624191
v -624192 -624193 -624194 624195 -624196 624197 -624198 -624199 -624200
v -624201 -624202 -624203 -624204 -624205 -624206 -624207 -624208 -624209
v -624210 -624211 -624212 -624213 -624214 -624215 -624216 -624217 -624218
v -624219 -624220 -624221 -624222 -624223 -624224 -624225 -624226 -624227
v -624228 -624229 -624230 -624231 624232 -624233 624234 -624235 -624236
v -624237 -624238 -624239 -624240 -624241 -624242 -624243 -624244 -624245
v -624246 -624247 -624248 -624249 -624250 -624251 -624252 -624253 -624254
v -624255 -624256 -624257 -624258 -624259 -624260 -624261 -624262 -624263
v -624264 -624265 -624266 -624267 624268 -624269 624270 -624271 -624272
v -624273 -624274 -624275 -624276 -624277 -624278 -624279 -624280 -624281
v -624282 -624283 -624284 -624285 -624286 -624287 -624288 -624289 -624290
v -624291 -624292 -624293 -624294 -624295 -624296 -624297 -624298 -624299
v -624300 -624301 -624302 -624303 624304 -624305 624306 -624307 -624308
v -624309 -624310 -624311 -624312 -624313 -624314 -624315 -624316 -624317
v -624318 -624319 -624320 -624321 -624322 -624323 -624324 -624325 -624326
v -624327 -624328 -624329 -624330 -624331 -624332 -624333 -624334 -624335
v -624336 -624337 -624338 -624339 624340 -624341 624342 -624343 -624344
v -624345 -624346 -624347 -624348 -624349 -624350 -624351 -624352 -624353
v -624354 -624355 -624356 -624357 -624358 -624359 -624360 -624361 -624362
v -624363 -624364 -624365 -624366 -624367 -624368 -624369 -624370 -624371
v -624372 -624373 -624374 -624375 624376 -624377 624378 -624379 624380 -624381
v 0
c 
c --- [ run-time profiling ] -------------------------------------------------
c 
c process time taken by individual solving procedures
c (percentage relative to process time for solving)
c 
c         0.27  771.66% parse
c         0.03   99.58% lucky
c         0.03   99.58% search
c         0.00    0.00% simplify
c   =================================
c         0.03   10.44% solve
c 
c last line shows process time for solving
c (percentage relative to total process time)
c 
c --- [ statistics ] ---------------------------------------------------------
c 
c fixed:                    296158        47.43 %  of all variables
c lucky:                         1       100.00 %  of tried
c minimized:                     0         0.00 %  learned literals
c shrunken:                      0         0.00 %  learned literals
c minishrunken:                  0         0.00 %  learned literals
c propagations:             296158         8.54 M  per second
c 
c seconds are measured in process time for solving
c 
c --- [ resources ] ----------------------------------------------------------
c 
c total process time since initialization:         0.33    seconds
c total real time since initialization:            0.34    seconds
c maximum resident set size of process:          254.31    MB
c 
c --- [ shutting down ] ------------------------------------------------------
c 
c exit 10
